c turning on binary mode checking
c parsing input formula with 202048 variables and 780990 clauses
c finished parsing, read 2329919 bytes from proof file
c detected empty clause; start verification via backward checking
c 3694 of 780990 clauses in core                            
c 1252 of 89832 lemmas in core using 19181 resolution steps
c 0 RAT lemmas in core; 60 redundant literals in core lemmas
s VERIFIED
c verification time: 1.231 seconds
